%NProcShared=28
%mem=200GB
%Chk=job_1_hexyl_3_methylimidazol_3_ium.chk
#p B3LYP/6-311G** em=GD3BJ Opt freq int=fine

1_hexyl_3_methylimidazol_3_ium

1  1
C      5.306378   -0.029354    0.405143
C      4.146366   -0.077728   -0.576456
C      2.802701    0.071182    0.136683
C      1.638553    0.022004   -0.854112
C      0.295265    0.170859   -0.141099
C     -0.866823    0.121926   -1.126874
N     -2.149782    0.259206   -0.431851
C     -2.832719    1.443981   -0.205600
C     -3.973551    1.117772    0.471378
N     -3.958877   -0.257140    0.640461
C     -2.846785   -0.763205    0.087632
C     -4.985560   -1.040973    1.314686
H      5.324882    0.923354    0.943977
H      6.257166   -0.137674   -0.126062
H      5.233216   -0.838222    1.139116
H      4.266835    0.723230   -1.315142
H      4.175680   -1.028635   -1.121085
H      2.689057   -0.729880    0.877271
H      2.780208    1.021903    0.683225
H      1.752091    0.823198   -1.594521
H      1.660960   -0.928785   -1.400470
H      0.177027   -0.626475    0.602774
H      0.267940    1.119066    0.409496
H     -0.785671    0.925741   -1.867568
H     -0.876709   -0.829823   -1.670523
H     -2.412720    2.370641   -0.557490
H     -4.800929    1.687245    0.858818
H     -2.560233   -1.808561    0.064732
H     -5.946387   -0.872536    0.821066
H     -5.043098   -0.728485    2.360713
H     -4.734481   -2.103831    1.266036

--link1--
%oldchk=./job_1_hexyl_3_methylimidazol_3_ium.chk
%chk=job_1_hexyl_3_methylimidazol_3_ium_gas.chk
# B3LYP/def2TZVP em=GD3BJ geom=allcheck


--link1--
%oldchk=./job_1_hexyl_3_methylimidazol_3_ium.chk
%chk=job_1_hexyl_3_methylimidazol_3_ium_solv.chk
# B3LYP/def2TZVP em=GD3BJ scrf=solvent geom=allcheck

